c 
c U(n,d) graph
c graph gen seed     : 21
c number of vertices : 20
c max number of edges: 400
c Euclidean distance : 0.200000
c data structure     : sparse
c
c           Graph Stats
c number of vertices  : 20
c nonisolated vertices: 17
c number of edges     : 13
c edge density        : 0.068421
c max degree          : 3
c avg degree          : 1.30
c min degree          : 0
p col 20 13
e 1 11
e 1 7
e 1 4
e 2 4
e 3 13
e 5 14
e 7 17
e 7 11
e 8 17
e 9 20
e 10 12
e 11 17
e 18 19
